27640.7 0
0 12 93 15 97 33 60 1 45 36 65 86 78 67 98 42 53 9 48 68 41 59 85 6 23 49 82 94 30 46 18 63 95 61 89 76 64 62 28 13 69 4 91 16 80 96 55 3 24 71 57 66 74 39 83 7 47 37 77 88 87 20 21 32 11 99 44 43 40 19 25 72 84 51 17 79 70 38 90 8 52 22 5 54 92 35 14 29 26 34 50 2 10 75 27 58 31 56 81 73 
